Res/generated_sat_003.cnf
c Hard 3-SAT instance at phase transition threshold
c Variables: 18
c Clauses: 76
c Ratio: 4.26 (critical threshold)
p cnf 18 76
-12 -11 -9 0
18 16 4 0
1 -10 6 0
12 1 -10 0
3 7 -12 0
-14 -6 -7 0
17 -8 3 0
1 7 -11 0
-9 12 3 0
9 17 10 0
-7 1 4 0
12 -16 -8 0
-1 -16 -14 0
-4 17 -14 0
-8 -7 4 0
-15 -5 -7 0
8 -11 5 0
-9 6 7 0
-10 -3 4 0
18 -9 -7 0
-18 9 -14 0
-16 -10 -17 0
12 2 -9 0
3 5 -18 0
-18 -15 7 0
8 3 -14 0
-7 -1 16 0
1 15 16 0
6 3 2 0
9 -14 -6 0
-5 10 -14 0
-16 -13 14 0
4 3 7 0
-7 9 4 0
1 18 14 0
9 6 -1 0
11 -15 -17 0
-15 -2 -12 0
10 -18 -6 0
14 -15 13 0
1 6 17 0
-1 17 18 0
-12 4 18 0
-5 14 8 0
6 -15 5 0
7 -2 17 0
-16 3 -13 0
-2 1 6 0
-14 -18 -1 0
3 11 -14 0
17 8 7 0
-16 -1 12 0
-13 -12 17 0
15 4 6 0
-15 3 -1 0
-15 9 16 0
7 -8 16 0
3 -4 -12 0
14 -18 7 0
11 9 10 0
14 15 7 0
7 17 1 0
-10 5 18 0
-9 -1 -5 0
9 15 -10 0
-8 9 -16 0
16 9 -15 0
3 -11 -6 0
4 -11 -1 0
-2 -1 -8 0
2 10 -16 0
10 7 3 0
14 1 4 0
-15 -10 -17 0
5 11 1 0
-13 7 17 0