Res/generated_sat_003.cnf.sol
c Solution pour ../Res/generated_sat_003.cnf
c Temps: 0.001s
c Noeuds: 1182
v 1 2 3 4 -5 6 7 -8 9 10 -11 12 -13 -14 -15 16 -17 18 0
